(set-info :smt-lib-version 2.6)
(set-logic QF_UFLRA)
(set-info :source |
MathSat group

|)
(set-info :category "random")
(set-info :status sat)
(declare-fun x0 () Real)
(declare-fun x1 () Real)
(declare-fun x2 () Real)
(declare-fun x3 () Real)
(declare-fun x4 () Real)
(declare-fun x5 () Real)
(declare-fun x6 () Real)
(declare-fun x7 () Real)
(declare-fun x8 () Real)
(declare-fun x9 () Real)
(declare-fun x10 () Real)
(declare-fun x11 () Real)
(declare-fun x12 () Real)
(declare-fun x13 () Real)
(declare-fun x14 () Real)
(declare-fun x15 () Real)
(declare-fun x16 () Real)
(declare-fun x17 () Real)
(declare-fun x18 () Real)
(declare-fun x19 () Real)
(declare-fun x20 () Real)
(declare-fun x21 () Real)
(declare-fun x22 () Real)
(declare-fun x23 () Real)
(declare-fun x24 () Real)
(declare-fun x25 () Real)
(declare-fun x26 () Real)
(declare-fun x27 () Real)
(declare-fun x28 () Real)
(declare-fun x29 () Real)
(declare-fun x30 () Real)
(declare-fun x31 () Real)
(declare-fun x32 () Real)
(declare-fun x33 () Real)
(declare-fun x34 () Real)
(declare-fun x35 () Real)
(declare-fun x36 () Real)
(declare-fun x37 () Real)
(declare-fun x38 () Real)
(declare-fun x39 () Real)
(declare-fun x40 () Real)
(declare-fun x41 () Real)
(declare-fun x42 () Real)
(declare-fun x43 () Real)
(declare-fun x44 () Real)
(declare-fun x45 () Real)
(declare-fun x46 () Real)
(declare-fun x47 () Real)
(declare-fun x48 () Real)
(declare-fun x49 () Real)
(declare-fun f0_1 (Real) Real)
(declare-fun f0_2 (Real Real) Real)
(declare-fun f0_3 (Real Real Real) Real)
(declare-fun f0_4 (Real Real Real Real) Real)
(declare-fun P0 () Bool)
(declare-fun P1 () Bool)
(declare-fun P2 () Bool)
(declare-fun P3 () Bool)
(declare-fun P4 () Bool)
(declare-fun P5 () Bool)
(declare-fun P6 () Bool)
(declare-fun P7 () Bool)
(declare-fun P8 () Bool)
(declare-fun P9 () Bool)
(declare-fun P10 () Bool)
(declare-fun P11 () Bool)
(declare-fun P12 () Bool)
(declare-fun P13 () Bool)
(declare-fun P14 () Bool)
(declare-fun P15 () Bool)
(declare-fun P16 () Bool)
(declare-fun P17 () Bool)
(declare-fun P18 () Bool)
(declare-fun P19 () Bool)
(declare-fun P20 () Bool)
(declare-fun P21 () Bool)
(declare-fun P22 () Bool)
(declare-fun P23 () Bool)
(declare-fun P24 () Bool)
(declare-fun P25 () Bool)
(declare-fun P26 () Bool)
(declare-fun P27 () Bool)
(declare-fun P28 () Bool)
(declare-fun P29 () Bool)
(declare-fun P30 () Bool)
(declare-fun P31 () Bool)
(declare-fun P32 () Bool)
(declare-fun P33 () Bool)
(declare-fun P34 () Bool)
(declare-fun P35 () Bool)
(declare-fun P36 () Bool)
(declare-fun P37 () Bool)
(declare-fun P38 () Bool)
(declare-fun P39 () Bool)
(declare-fun P40 () Bool)
(declare-fun P41 () Bool)
(declare-fun P42 () Bool)
(declare-fun P43 () Bool)
(declare-fun P44 () Bool)
(declare-fun P45 () Bool)
(declare-fun P46 () Bool)
(declare-fun P47 () Bool)
(declare-fun P48 () Bool)
(declare-fun P49 () Bool)
(assert (let ((?v_103 (= (+ (- (* 12 x33) (* 14 x15)) (* 19 x39)) 0)) (?v_57 (= (- (+ (* 22 x16) (* 18 x15)) (* 4 x40)) 18)) (?v_110 (* 19 x24))) (let ((?v_144 (<= (- (- (* 24 x48) ?v_110) (* 27 x26)) 19)) (?v_27 (<= (- (- (* 6 x7) (* 10 x46)) (* 17 x5)) 15)) (?v_11 (* 24 x21)) (?v_52 (* 8 x6)) (?v_187 (* 12 x36)) (?v_178 (<= (- (- (* 21 x43) (* 18 x41)) (* 26 x42)) 24)) (?v_32 (* 19 x28)) (?v_44 (distinct (+ (- (* 24 x4) (* 21 x10)) (* 6 x15)) 8)) (?v_177 (= (+ (- (* 8 x40) (* 2 x8)) (* 19 x12)) 18)) (?v_43 (* 22 x12)) (?v_62 (* 16 x20))) (let ((?v_74 (= (+ (- ?v_62 (* 2 x34)) (* 21 x45)) 8)) (?v_127 (= (- (- (* 21 x11) (* 6 x23)) (* 2 x20)) 22)) (?v_55 (< (- (+ (* 19 x36) (* 17 x23)) (* 8 x25)) 19)) (?v_91 (< (- (- (* 7 x10) ?v_43) (* 21 x4)) 3)) (?v_200 (< (+ (- (* 26 x43) ?v_110) (* 27 x7)) 20)) (?v_24 (= (f0_2 x40 x30) x24)) (?v_87 (distinct (f0_1 x13) x8)) (?v_179 (distinct (f0_2 x15 x0) (f0_2 x7 x33))) (?v_244 (= x3 x38)) (?v_60 (f0_1 x32))) (let ((?v_82 (distinct ?v_60 x38)) (?v_6 (f0_1 x39))) (let ((?v_194 (= ?v_6 (f0_1 x49))) (?v_63 (f0_1 x17))) (let ((?v_104 (= ?v_63 (f0_2 x17 x1))) (?v_89 (f0_1 x1)) (?v_113 (f0_1 x30))) (let ((?v_94 (= ?v_89 ?v_113)) (?v_163 (distinct (f0_1 x19) x27)) (?v_109 (= (f0_1 x35) (f0_2 x40 x12))) (?v_215 (distinct (f0_2 x7 x24) x13)) (?v_239 (distinct (f0_2 x11 x49) ?v_60)) (?v_96 (f0_1 x37))) (let ((?v_98 (= ?v_96 (f0_2 x29 x28))) (?v_209 (= (f0_1 x20) (f0_2 x26 x26))) (?v_101 (= x44 (f0_1 x25))) (?v_40 (= (f0_1 x3) (f0_1 x48))) (?v_145 (distinct x41 x38)) (?v_23 (distinct x22 x42)) (?v_36 (= x37 x15)) (?v_78 (distinct (f0_2 x39 x27) (f0_1 x14))) (?v_54 (f0_1 x45))) (let ((?v_152 (= (f0_2 x5 x38) ?v_54)) (?v_79 (distinct x2 x30)) (?v_49 (= (f0_2 x0 x9) x15)) (?v_85 (= x17 (f0_2 x4 x47))) (?v_130 (distinct (f0_1 x0) ?v_96)) (?v_80 (= (f0_2 x48 x4) (f0_2 x10 x44))) (?v_39 (= x24 (f0_2 x17 x27))) (?v_16 (distinct x32 (f0_1 x24))) (?v_73 (distinct (f0_1 x47) x44)) (?v_72 (= (f0_2 x32 x34) (f0_1 x11))) (?v_88 (= x13 (f0_2 x33 x16))) (?v_46 (distinct x29 (f0_1 x21))) (?v_111 (distinct x30 ?v_54)) (?v_1 (distinct x18 x38)) (?v_19 (= (f0_2 x0 x44) (f0_2 x43 x49))) (?v_86 (= (f0_2 x6 x20) (f0_1 x43))) (?v_31 (= ?v_6 (f0_2 x21 x35))) (?v_105 (= x49 (f0_2 x14 x8))) (?v_97 (= (f0_2 x44 x7) (f0_2 x6 x48))) (?v_2 (= x44 x35)) (?v_170 (distinct (f0_1 x31) x39)) (?v_10 (= (f0_2 x26 x31) (f0_2 x13 x6))) (?v_22 (f0_1 x28))) (let ((?v_142 (distinct ?v_22 ?v_22)) (?v_189 (distinct x10 ?v_113)) (?v_106 (= (f0_1 x6) ?v_89)) (?v_249 (= (f0_2 x24 x48) (f0_2 x8 x37))) (?v_59 (= ?v_6 (f0_1 x5))) (?v_196 (= x38 x26)) (?v_120 (distinct (f0_1 x18) ?v_63)) (?v_202 (= ?v_89 (f0_2 x20 x16))) (?v_47 (not ?v_91)) (?v_50 (not ?v_44)) (?v_227 (not ?v_2)) (?v_53 (not P28)) (?v_0 (not ?v_209)) (?v_38 (not P16)) (?v_169 (not P31)) (?v_207 (not P42)) (?v_191 (not ?v_24)) (?v_37 (not P30)) (?v_33 (not ?v_19)) (?v_69 (not ?v_244)) (?v_203 (not P29)) (?v_15 (not P11)) (?v_211 (not ?v_152)) (?v_65 (not ?v_73)) (?v_255 (not ?v_39)) (?v_70 (not ?v_10)) (?v_114 (not P33)) (?v_140 (not ?v_179)) (?v_149 (not ?v_16)) (?v_51 (not P3)) (?v_14 (not P25)) (?v_174 (not P0)) (?v_242 (not P19)) (?v_20 (not P44)) (?v_92 (not P46)) (?v_42 (not P47)) (?v_76 (not P37)) (?v_45 (not P17))) (let ((?v_95 (not ?v_196)) (?v_176 (not ?v_103)) (?v_81 (not P14)) (?v_25 (not P34)) (?v_58 (not ?v_80)) (?v_77 (not ?v_249)) (?v_34 (not P12))) (let ((?v_128 (or ?v_34 ?v_87)) (?v_68 (not ?v_163)) (?v_41 (not ?v_72)) (?v_201 (not ?v_142)) (?v_35 (not ?v_79)) (?v_155 (not ?v_46)) (?v_117 (not P48)) (?v_118 (not ?v_27)) (?v_56 (not P35)) (?v_71 (not ?v_82)) (?v_160 (not ?v_36)) (?v_214 (not P36)) (?v_180 (not P41)) (?v_138 (not P38)) (?v_122 (not P2)) (?v_121 (not ?v_49)) (?v_238 (not P10)) (?v_84 (not P1)) (?v_66 (not P24)) (?v_157 (not ?v_55)) (?v_143 (not ?v_88)) (?v_208 (not P18)) (?v_222 (not ?v_239)) (?v_205 (not ?v_57)) (?v_100 (not ?v_120))) (let ((?v_263 (or ?v_205 ?v_100)) (?v_112 (not P39)) (?v_119 (not P9)) (?v_168 (not ?v_31)) (?v_90 (not ?v_74)) (?v_133 (not ?v_106)) (?v_107 (not ?v_78)) (?v_141 (not ?v_130)) (?v_182 (not ?v_59)) (?v_126 (not P7)) (?v_171 (not ?v_127)) (?v_190 (not ?v_178)) (?v_136 (not P8)) (?v_153 (not ?v_101)) (?v_135 (not P4)) (?v_188 (not ?v_144)) (?v_175 (not ?v_111)) (?v_129 (not P49)) (?v_123 (not ?v_189)) (?v_204 (not ?v_94)) (?v_246 (not P32)) (?v_172 (not P23)) (?v_206 (not ?v_97)) (?v_132 (not P15)) (?v_233 (not ?v_85)) (?v_220 (not ?v_170)) (?v_192 (not P5)) (?v_164 (not ?v_86)) (?v_232 (not ?v_87)) (?v_161 (not ?v_40)) (?v_146 (not ?v_105)) (?v_264 (not P21)) (?v_256 (not ?v_1)) (?v_181 (not P22)) (?v_241 (not ?v_177)) (?v_266 (not ?v_104)) (?v_230 (not P20)) (?v_253 (not P40)) (?v_197 (not ?v_194)) (?v_250 (not P27)) (?v_245 (not ?v_109)) (?v_254 (not ?v_202)) (?v_217 (not P45)) (?v_240 (not ?v_200)) (?v_236 (not ?v_23)) (?v_219 (not ?v_215)) (?v_223 (not P26)) (?v_260 (not ?v_145)) (?v_258 (not P13)) (?v_262 (not P6)) (?v_257 (not P43)) (?v_261 (or P2 ?v_205)) (?v_265 (not ?v_98)) (?v_64 (distinct (+ (* 16 x13) (* 21 x35)) 19))) (let ((?v_252 (not ?v_64)) (?v_154 (<= (- (+ (* 15 x22) (* 10 x39)) x42) 23))) (let ((?v_218 (not ?v_154)) (?v_193 (< (+ (* 7 x15) (* 2 x11) ?v_52) 14))) (let ((?v_247 (not ?v_193)) (?v_48 (<= (- (* 10 x40) ?v_11) (- 3))) (?v_4 (< (- (+ (* 26 x41) (* 11 x19)) (* 27 x5)) (- 3))) (?v_9 (<= (- (- (* (- 15) x32) (* 4 x16)) (* 2 x16)) (- 12))) (?v_7 (< (+ (* (- 4) x21) (* 20 x7) (* 26 x6)) 3))) (let ((?v_3 (not ?v_7)) (?v_5 (< (+ (- (* (- 19) x13) ?v_32) (* 9 x36)) 19)) (?v_8 (= (+ (* (- 8) x11) (* 20 x48) (* 25 x19)) (- 14)))) (let ((?v_186 (not ?v_8)) (?v_213 (not ?v_5)) (?v_124 (<= (+ (- (* (- 10) x23) (* 13 x4)) (* 21 x22)) 15)) (?v_17 (= (- (+ (* (- 3) x36) (* 21 x27)) (* 27 x16)) (- 21)))) (let ((?v_150 (not ?v_17)) (?v_30 (< (+ (* 3 x39) (* 14 x44) (* 25 x29)) (- 11)))) (let ((?v_13 (not ?v_30)) (?v_12 (< (- (+ (* 8 x17) ?v_11) (* 10 x17)) (- 5))) (?v_18 (= (- (- (* 5 x10) 0) (* 2 x48)) (- 1))) (?v_75 (< (+ (- (* 14 x33) (* 12 x13)) (* 2 x36)) (- 24))) (?v_228 (<= (- (- (* (- 3) x17) (* 23 x47)) (* 11 x9)) 0))) (let ((?v_29 (not ?v_228)) (?v_26 (<= (+ (- (* (- 7) x32) (* 11 x37)) (* 19 x5)) (- 24))) (?v_93 (< (+ x19 ?v_52 (* 23 x22)) (- 8)))) (let ((?v_28 (not ?v_93)) (?v_21 (not ?v_18)) (?v_199 (not ?v_4)) (?v_108 (<= (+ (- (* (- 12) x47) (* 10 x14)) (* 18 x33)) (- 16))) (?v_125 (distinct (- (+ (* 6 x49) (* 2 x24)) (* 5 x20)) (- 24))) (?v_151 (< (- (- 0 ?v_187) ?v_32) (- 29))) (?v_102 (distinct (- (- (* (- 14) x2) (* 21 x44)) ?v_43) 28)) (?v_212 (<= (- (+ (* 4 x32) (* 26 x8)) (* 2 x9)) (- 6)))) (let ((?v_185 (not ?v_212)) (?v_67 (not ?v_48)) (?v_137 (< (+ (- (* (- 2) x25) (* 23 x24)) (* 10 x7)) (- 19))) (?v_229 (not ?v_12)) (?v_61 (<= (- (- (* (- 11) x26) (* 10 x34)) ?v_62) 0)) (?v_99 (<= (- (+ (* 14 x13) (* 24 x22)) (* 10 x20)) (- 4))) (?v_134 (< (- (+ (* (- 11) x28) (* 19 x31)) (* 22 x22)) 29)) (?v_83 (< (- (- (* (- 15) x40) (* 19 x10)) (* 9 x16)) (- 27))) (?v_148 (< (+ (* 20 x19) (* 18 x34) (* 19 x22)) (- 25))) (?v_139 (< (- (- (* (- 27) x36) (* 9 x32)) (* 26 x24)) (- 23)))) (let ((?v_225 (not ?v_83)) (?v_162 (<= (+ (* (- 3) x32) (* 14 x4) (* 22 x25)) 27))) (let ((?v_165 (not ?v_162)) (?v_156 (distinct (- (+ (* (- 9) x11) (* 9 x42)) (* 19 x45)) (- 11))) (?v_184 (not ?v_9)) (?v_221 (<= (+ (* 11 x26) (* 10 x38) (* 5 x1)) (- 18)))) (let ((?v_115 (not ?v_221)) (?v_224 (not ?v_26)) (?v_116 (<= (+ (- (* 14 x0) (* 26 x15)) (* 15 x31)) (- 26))) (?v_131 (<= (+ (- (* (- 16) x14) (* 6 x35)) x15) (- 28))) (?v_183 (not ?v_61)) (?v_231 (not ?v_108)) (?v_167 (<= (+ (- (* (- 4) x20) (* 24 x10)) (* 21 x18)) (- 25))) (?v_235 (not ?v_125)) (?v_237 (not ?v_102)) (?v_159 (not ?v_134)) (?v_158 (not ?v_124)) (?v_147 (not ?v_137)) (?v_166 (not ?v_139)) (?v_243 (not ?v_148))) (let ((?v_173 (not ?v_167)) (?v_251 (<= (+ (* 24 x34) (* 6 x30) ?v_187) (- 8)))) (let ((?v_198 (not ?v_251)) (?v_195 (< (+ (- (* 11 x31) (* 3 x31)) (* 17 x33)) (- 19)))) (let ((?v_216 (not ?v_195)) (?v_210 (not ?v_99)) (?v_234 (not ?v_131)) (?v_226 (not ?v_116)) (?v_248 (not ?v_151)) (?v_259 (or P31 ?v_229))) (and (and (and (and (and (and (and (and (and (and (and (and (and (and (and (and (and (and (and (and (and (and (and (and (and (and (and (and (and (and (and (and (and (and (and (and (and (and (and (and (and (and (and (and (and (and (and (and (and (and (and (and (and (and (and (and (and (and (and (and (and (and (and (and (and (and (and (and (and (and (and (and (and (and (and (and (and (and (and (and (and (and (and (and (and (and (and (and (and (and (and (and (and (and (and (and (and (and (and (and (and (and (and (and (and (and (and (and (and (and (and (and (and (and (and (and (and (and (and (and (and (and (and (and (and (and (and (and (and (and (and (and (and (and (and (and (and (and (and (and (and (and (and (and (and (and (and (and (and (and (and (and (and (and (and (and (and (and (and (and (and (and (and (and (and (and (and (and (and (and (and (and (and (and (and (and (and (and (and (and (and (and (and (and (and (and (and (and (and (and (and (and (and (and (and (and (and (and (and (and (and (and (and (and (and (and (and (and (and (and (and (and (and (and (and (and (and (and (and (and (and (and (and (and (and (and (and (and (and (and (and (and (and (and (and (and (and (and (and (and (and (and (and (and (and (and (and (and (and (and (and (and (and (and (and (and (and (and (and (and (and (and (and (and (and (and (and (and (and (and (and (and (and (and (and (and (and (and (and (and (and (and (and (and (and (and (and (and (and (and (and (and (and (and (and (and (and (and (and (and (and (and (and (and (and (and (and (and (and (and (and (and (and (and (and (and (and (and (and (and (and (and (and (and (and (and (and (and (and (and (and (and (and (and (and (and (and (and (and (and (and (and (and (and (and (and (and (and (and (and (and (and (and (and (and (and (and (and (and (and (and (and (and (and (and (and (and (and (and (and (and (and (and (and (and (and (and (and (and (and (and (and (and (and (and (and (and (and (and (and (and (and (and (and (and (and (and (and (and (and (and (and (and (and (and (and (and (and (and (and (and (and (and (and (and (and (and (and (and (and (and (and (and (and (and (and (and (and (and (and (and (and (and (and (and (and (and (and (and (and (and (and (and (and (and (and (and (and (and (and (and (and (and (and (and (and (and (and (and (and (and (and (and (and (and (and (and (and (and (and (and (and (and (and (and (and (and (and (and (and (and (and (and (and (and (and (and (and (and (and (and (and (and (and (and (and (and (and (and (and (and (and (and (and (and (and (and (and (and (and (and (and (and (and (and (and (and (and (and (and (and (and (and (and (and (and (and (and (and (and (and (and (and (and (and (and (and (and (and (and (and (and (and (and (and (and (and (and (and (and (and (and (and (and (and (and (and (and (and (and (and (and (and (and (and (and (and (and (and (and (and (and (and (and (and (and (and (and (and (and (and (and (and (and (and (and (and (and (and (and (and (and (and (and (and (and (and (and (and (or (or ?v_48 ?v_10) ?v_47) (or (or ?v_50 ?v_4) ?v_227)) (or (or ?v_53 ?v_0) ?v_38)) (or (or ?v_97 ?v_1) ?v_169)) (or (or ?v_9 ?v_3) P19)) (or (or ?v_145 ?v_0) ?v_5)) (or (or P1 ?v_36) ?v_207)) (or (or ?v_186 P37) ?v_191)) (or (or ?v_49 ?v_1) ?v_37)) (or (or ?v_104 ?v_33) P44)) (or (or ?v_2 ?v_3) ?v_27)) (or (or P17 P5) ?v_69)) (or (or ?v_31 ?v_203) ?v_4)) (or (or ?v_213 ?v_105) ?v_252)) (or (or ?v_15 P36) ?v_59)) (or (or ?v_124 ?v_7) ?v_8)) (or (or ?v_211 P17) P4)) (or (or P30 ?v_65) ?v_255)) (or (or ?v_9 ?v_150) ?v_218)) (or (or P10 ?v_13) ?v_70)) (or (or ?v_12 ?v_12) ?v_13)) (or (or ?v_7 ?v_114) ?v_57)) (or (or ?v_215 P12) ?v_18)) (or (or ?v_140 ?v_149) ?v_51)) (or (or ?v_200 ?v_14) ?v_174)) (or (or ?v_75 P42) ?v_14)) (or (or P38 ?v_29) ?v_242)) (or (or ?v_15 ?v_20) ?v_92)) (or (or ?v_16 ?v_26) ?v_42)) (or (or ?v_76 ?v_28) ?v_23)) (or (or ?v_45 ?v_17) P40)) (or (or ?v_95 ?v_176) ?v_21)) (or (or ?v_81 ?v_19) P43)) (or (or ?v_199 ?v_20) ?v_21)) (or (or ?v_25 ?v_58) ?v_77)) (or ?v_128 ?v_109)) (or (or ?v_55 P28) ?v_68)) (or (or ?v_108 ?v_41) P6)) (or (or ?v_78 P46) ?v_201)) (or (or ?v_23 ?v_125) ?v_24)) (or (or ?v_25 ?v_35) ?v_155)) (or (or ?v_117 ?v_85) ?v_26)) (or (or ?v_118 ?v_40) ?v_28)) (or (or ?v_56 ?v_29) ?v_30)) (or (or ?v_31 ?v_71) P21)) (or (or ?v_151 ?v_33) ?v_34)) (or (or ?v_35 ?v_3) ?v_160)) (or (or ?v_13 ?v_37) ?v_38)) (or (or ?v_3 ?v_214) ?v_180)) (or (or ?v_39 ?v_138) ?v_40)) (or (or ?v_41 ?v_42) ?v_102)) (or (or ?v_44 ?v_45) ?v_185)) (or (or ?v_46 ?v_122) ?v_47)) (or (or ?v_67 ?v_121) ?v_50)) (or (or ?v_51 ?v_16) ?v_238)) (or (or ?v_34 ?v_193) ?v_18)) (or (or ?v_53 ?v_84) ?v_66)) (or (or ?v_137 ?v_111) P13)) (or (or ?v_31 ?v_35) ?v_9)) (or (or ?v_229 ?v_19) ?v_157)) (or (or ?v_56 ?v_143) P5)) (or (or ?v_208 ?v_57) ?v_58)) (or (or ?v_59 ?v_222) ?v_61)) (or (or ?v_99 ?v_61) P29)) (or (or P35 ?v_86) ?v_0)) (or (or ?v_3 ?v_74) P37)) (or ?v_263 ?v_27)) (or (or ?v_134 ?v_64) ?v_65)) (or (or ?v_57 ?v_66) ?v_67)) (or (or ?v_68 ?v_42) P44)) (or (or ?v_112 ?v_119) ?v_20)) (or (or ?v_17 ?v_83) ?v_69)) (or (or ?v_70 ?v_40) ?v_148)) (or (or P29 ?v_19) ?v_71)) (or (or ?v_3 ?v_168) ?v_72)) (or (or ?v_73 ?v_90) ?v_28)) (or (or ?v_59 P36) ?v_75)) (or (or ?v_133 ?v_76) ?v_72)) (or (or ?v_77 ?v_61) ?v_107)) (or (or ?v_139 ?v_79) ?v_21)) (or (or ?v_80 ?v_13) ?v_81)) (or (or P19 ?v_56) ?v_82)) (or (or ?v_225 ?v_84) P4)) (or (or ?v_85 ?v_194) P32)) (or (or ?v_86 ?v_141) ?v_36)) (or (or P8 ?v_182) P26)) (or (or ?v_4 ?v_101) ?v_87)) (or (or ?v_39 ?v_85) ?v_19)) (or (or ?v_37 P31) ?v_31)) (or (or ?v_88 ?v_94) ?v_90)) (or (or ?v_126 P24) ?v_4)) (or (or ?v_18 ?v_171) ?v_91)) (or (or ?v_165 ?v_72) ?v_156)) (or (or ?v_184 ?v_46) ?v_20)) (or (or ?v_92 P14) ?v_93)) (or (or ?v_94 ?v_95) ?v_98)) (or (or ?v_45 ?v_88) ?v_115)) (or (or ?v_42 ?v_19) P40)) (or (or ?v_97 ?v_190) ?v_98)) (or (or ?v_224 ?v_136) ?v_99)) (or (or ?v_7 P20) P3)) (or (or P23 ?v_19) ?v_93)) (or (or P4 ?v_100) ?v_40)) (or (or ?v_116 ?v_153) ?v_33)) (or (or ?v_102 ?v_135) ?v_103)) (or (or P5 P32) ?v_98)) (or (or ?v_8 ?v_80) ?v_99)) (or (or ?v_104 ?v_70) P30)) (or (or ?v_131 ?v_105) P16)) (or (or P8 ?v_202) ?v_30)) (or (or ?v_106 ?v_107) ?v_183)) (or (or ?v_39 ?v_20) ?v_27)) (or (or ?v_64 P40) ?v_231)) (or (or ?v_109 ?v_188) ?v_61)) (or (or ?v_88 P6) P3)) (or (or ?v_175 ?v_129) ?v_112)) (or (or P36 ?v_167) ?v_123)) (or (or P7 P14) ?v_204)) (or (or P38 ?v_114) ?v_102)) (or (or ?v_51 ?v_115) ?v_13)) (or (or ?v_88 ?v_10) ?v_3)) (or (or P18 ?v_15) ?v_116)) (or (or ?v_117 ?v_246) ?v_71)) (or (or ?v_118 ?v_119) ?v_66)) (or (or ?v_39 ?v_39) ?v_120)) (or (or ?v_73 ?v_121) ?v_122)) (or (or ?v_123 ?v_121) P12)) (or (or ?v_124 ?v_124) ?v_107)) (or (or ?v_10 ?v_235) ?v_114)) (or (or ?v_126 ?v_93) ?v_172)) (or (or ?v_46 ?v_127) ?v_206)) (or ?v_128 ?v_37)) (or (or ?v_129 ?v_237) ?v_80)) (or (or P34 ?v_130) ?v_103)) (or (or ?v_107 P29) ?v_132)) (or (or ?v_233 P35) ?v_131)) (or (or ?v_88 ?v_132) ?v_133)) (or (or ?v_8 ?v_220) ?v_159)) (or (or ?v_135 P35) ?v_136)) (or (or P16 P38) ?v_192)) (or (or ?v_158 ?v_61) ?v_147)) (or (or ?v_138 ?v_166) P49)) (or (or ?v_119 ?v_130) ?v_140)) (or (or ?v_124 ?v_141) ?v_142)) (or (or ?v_164 P14) ?v_232)) (or (or P43 ?v_143) P36)) (or (or P19 ?v_144) P43)) (or (or ?v_161 ?v_13) ?v_119)) (or (or ?v_83 ?v_8) P41)) (or (or P5 ?v_40) ?v_131)) (or (or ?v_145 ?v_9) ?v_146)) (or (or ?v_146 ?v_145) ?v_112)) (or (or ?v_147 ?v_48) ?v_243)) (or (or ?v_125 ?v_149) ?v_150)) (or (or ?v_151 ?v_133) ?v_51)) (or (or ?v_33 ?v_152) ?v_153)) (or (or P15 ?v_154) ?v_155)) (or (or ?v_156 ?v_69) ?v_8)) (or (or ?v_80 ?v_5) ?v_157)) (or (or ?v_9 ?v_12) ?v_158)) (or (or P47 ?v_152) ?v_35)) (or (or ?v_145 P27) ?v_79)) (or (or ?v_159 ?v_105) ?v_160)) (or (or ?v_10 P28) ?v_100)) (or (or ?v_134 ?v_88) P45)) (or (or P25 P43) ?v_118)) (or (or P16 ?v_93) P22)) (or (or ?v_264 ?v_30) ?v_5)) (or (or P27 P36) P25)) (or (or ?v_256 ?v_161) ?v_103)) (or (or ?v_162 ?v_98) ?v_31)) (or (or ?v_163 ?v_164) ?v_165)) (or (or ?v_166 ?v_114) P39)) (or (or ?v_167 ?v_24) ?v_85)) (or (or ?v_177 P39) ?v_39)) (or (or ?v_168 ?v_109) ?v_140)) (or (or ?v_108 ?v_79) ?v_169)) (or (or ?v_118 ?v_13) ?v_170)) (or (or ?v_173 ?v_171) ?v_48)) (or (or ?v_136 ?v_172) ?v_173)) (or (or ?v_47 ?v_158) ?v_174)) (or (or ?v_175 P34) ?v_127)) (or (or ?v_176 P33) ?v_13)) (or (or ?v_165 ?v_181) ?v_241)) (or (or ?v_29 ?v_107) ?v_171)) (or (or ?v_124 ?v_178) ?v_27)) (or (or ?v_167 P42) ?v_24)) (or (or ?v_24 ?v_179) ?v_180)) (or (or ?v_115 ?v_181) P31)) (or (or ?v_164 ?v_266) ?v_155)) (or (or P12 ?v_93) ?v_37)) (or (or ?v_79 P49) ?v_72)) (or (or ?v_182 ?v_165) ?v_183)) (or (or ?v_184 ?v_15) ?v_167)) (or (or P49 ?v_185) ?v_186)) (or (or ?v_47 ?v_75) P38)) (or (or P2 P30) ?v_230)) (or (or ?v_35 P49) P15)) (or (or ?v_198 ?v_188) ?v_160)) (or (or ?v_189 ?v_190) ?v_183)) (or (or P38 ?v_191) ?v_108)) (or (or ?v_192 ?v_253) ?v_247)) (or (or ?v_112 P22) ?v_126)) (or (or ?v_216 ?v_125) ?v_20)) (or (or ?v_76 ?v_197) ?v_134)) (or (or P3 ?v_135) P35)) (or (or ?v_250 ?v_67) P41)) (or (or ?v_245 ?v_195) P29)) (or (or ?v_1 ?v_73) ?v_58)) (or (or ?v_173 ?v_196) ?v_7)) (or (or ?v_137 P38) ?v_197)) (or (or ?v_198 ?v_163) ?v_142)) (or (or ?v_210 ?v_109) ?v_48)) (or (or P1 ?v_44) ?v_199)) (or (or ?v_200 ?v_1) ?v_84)) (or (or ?v_9 ?v_234) ?v_127)) (or (or ?v_28 ?v_201) ?v_103)) (or (or ?v_24 ?v_24) ?v_94)) (or (or ?v_254 ?v_18) ?v_190)) (or (or ?v_189 ?v_18) ?v_203)) (or (or P26 ?v_178) ?v_68)) (or (or ?v_204 P17) P7)) (or (or ?v_145 ?v_217) ?v_205)) (or (or ?v_134 P21) P17)) (or (or ?v_72 ?v_25) ?v_206)) (or (or ?v_5 ?v_88) ?v_207)) (or (or ?v_58 ?v_208) P5)) (or (or ?v_67 P11) ?v_58)) (or (or ?v_51 ?v_209) P17)) (or (or P3 ?v_57) ?v_240)) (or (or ?v_18 ?v_210) ?v_155)) (or (or ?v_181 ?v_56) ?v_35)) (or (or P0 ?v_27) P32)) (or (or P39 ?v_179) ?v_74)) (or (or ?v_148 ?v_236) ?v_172)) (or (or ?v_211 ?v_183) ?v_212)) (or (or ?v_213 ?v_12) P43)) (or (or ?v_148 ?v_101) ?v_133)) (or (or ?v_177 ?v_214) ?v_174)) (or (or ?v_91 ?v_49) ?v_17)) (or (or ?v_207 ?v_178) ?v_78)) (or (or ?v_86 P27) ?v_29)) (or (or ?v_74 ?v_219) ?v_216)) (or (or P1 ?v_109) ?v_59)) (or (or ?v_201 ?v_24) ?v_192)) (or (or ?v_217 ?v_120) ?v_131)) (or (or ?v_226 P49) ?v_119)) (or (or ?v_94 ?v_24) P41)) (or (or ?v_9 ?v_189) ?v_204)) (or (or P38 ?v_181) ?v_61)) (or (or ?v_223 P7) P35)) (or (or ?v_77 ?v_210) ?v_87)) (or (or ?v_73 ?v_183) P11)) (or (or P42 ?v_204) ?v_2)) (or (or ?v_106 P47) ?v_188)) (or (or ?v_218 P4) P5)) (or (or ?v_219 ?v_160) ?v_57)) (or (or ?v_199 ?v_61) P6)) (or (or ?v_64 P49) ?v_79)) (or (or ?v_92 ?v_220) ?v_66)) (or (or ?v_123 ?v_126) ?v_9)) (or (or ?v_221 ?v_38) ?v_80)) (or (or ?v_79 ?v_142) ?v_99)) (or (or P45 P19) ?v_44)) (or (or ?v_81 ?v_260) ?v_222)) (or (or P9 ?v_104) ?v_205)) (or (or ?v_74 P49) P12)) (or (or ?v_210 ?v_134) ?v_19)) (or (or ?v_53 P20) ?v_101)) (or (or ?v_119 P49) P8)) (or (or ?v_125 ?v_223) ?v_66)) (or (or ?v_65 ?v_81) ?v_1)) (or (or ?v_224 P14) P29)) (or (or P8 P46) P35)) (or (or ?v_83 P6) ?v_64)) (or (or ?v_50 ?v_225) P49)) (or (or ?v_222 ?v_53) ?v_224)) (or (or ?v_226 ?v_8) ?v_53)) (or (or ?v_153 ?v_117) ?v_176)) (or (or P9 ?v_143) ?v_227)) (or (or P8 ?v_228) ?v_18)) (or (or ?v_135 ?v_207) ?v_144)) (or (or ?v_204 P6) ?v_27)) (or (or ?v_112 ?v_229) ?v_61)) (or (or ?v_38 ?v_36) ?v_27)) (or (or ?v_230 ?v_142) ?v_162)) (or (or ?v_117 P10) ?v_147)) (or (or ?v_231 ?v_207) ?v_28)) (or (or ?v_88 ?v_215) ?v_51)) (or (or ?v_45 ?v_248) ?v_13)) (or (or ?v_177 ?v_202) (not ?v_156))) (or (or P29 P2) ?v_25)) (or (or ?v_147 ?v_232) ?v_211)) (or (or ?v_218 ?v_118) ?v_233)) (or (or ?v_234 ?v_3) P19)) (or (or P49 ?v_235) ?v_100)) (or (or ?v_2 ?v_49) P39)) (or (or P36 ?v_127) ?v_151)) (or (or ?v_69 ?v_87) P47)) (or (or ?v_87 P12) ?v_139)) (or (or ?v_48 ?v_92) ?v_191)) (or (or ?v_18 ?v_26) P28)) (or (or ?v_116 ?v_100) ?v_134)) (or (or ?v_172 ?v_227) ?v_120)) (or (or ?v_85 ?v_180) ?v_134)) (or (or ?v_106 ?v_160) ?v_1)) (or (or ?v_127 ?v_236) ?v_25)) (or (or ?v_198 ?v_199) ?v_45)) (or (or ?v_4 ?v_185) ?v_21)) (or (or ?v_92 P4) ?v_139)) (or (or ?v_34 ?v_160) ?v_41)) (or (or ?v_237 ?v_49) P1)) (or (or ?v_151 ?v_156) ?v_238)) (or (or ?v_130 ?v_29) ?v_258)) (or (or P20 ?v_64) ?v_169)) (or (or ?v_149 ?v_152) ?v_154)) (or (or P28 ?v_177) ?v_214)) (or (or ?v_152 ?v_155) P23)) (or (or ?v_91 P39) ?v_102)) (or (or ?v_132 P8) P16)) (or (or ?v_90 ?v_93) ?v_205)) (or (or P15 ?v_107) ?v_225)) (or (or ?v_191 ?v_35) ?v_97)) (or (or P8 ?v_68) ?v_222)) (or (or ?v_39 ?v_137) ?v_129)) (or (or P36 ?v_154) ?v_201)) (or (or ?v_148 ?v_239) ?v_230)) (or (or ?v_50 ?v_10) P21)) (or (or ?v_155 ?v_240) ?v_19)) (or (or ?v_14 ?v_71) ?v_35)) (or (or ?v_241 ?v_242) P34)) (or (or ?v_137 ?v_158) ?v_2)) (or (or ?v_70 ?v_173) P42)) (or (or ?v_42 ?v_140) ?v_243)) (or (or ?v_215 ?v_37) ?v_86)) (or (or ?v_173 ?v_70) ?v_186)) (or (or ?v_123 ?v_171) ?v_47)) (or (or ?v_14 ?v_244) ?v_219)) (or (or ?v_156 P6) P39)) (or (or ?v_116 P46) P44)) (or (or ?v_238 P18) ?v_105)) (or (or ?v_25 ?v_100) ?v_196)) (or (or ?v_227 ?v_35) ?v_163)) (or (or ?v_119 ?v_197) ?v_209)) (or (or ?v_67 P22) ?v_240)) (or (or ?v_177 ?v_36) P29)) (or (or ?v_165 ?v_116) ?v_225)) (or (or ?v_130 ?v_212) ?v_168)) (or (or ?v_245 P4) ?v_45)) (or (or ?v_137 ?v_226) P43)) (or (or ?v_246 ?v_45) P21)) (or (or P29 ?v_7) ?v_4)) (or (or ?v_173 ?v_112) ?v_53)) (or (or ?v_65 ?v_176) P18)) (or (or ?v_134 ?v_16) ?v_262)) (or (or P13 ?v_204) ?v_41)) (or (or ?v_91 ?v_247) ?v_248)) (or (or ?v_20 ?v_1) ?v_219)) (or (or ?v_161 ?v_107) ?v_106)) (or (or ?v_108 ?v_230) P23)) (or (or ?v_79 ?v_143) ?v_38)) (or (or ?v_182 P39) ?v_119)) (or (or ?v_101 ?v_213) ?v_143)) (or (or ?v_185 ?v_241) ?v_123)) (or (or ?v_36 P29) P21)) (or (or ?v_234 ?v_131) ?v_230)) (or (or ?v_2 ?v_233) ?v_165)) (or (or ?v_239 ?v_16) ?v_98)) (or (or ?v_145 ?v_162) ?v_51)) (or (or ?v_249 ?v_147) ?v_53)) (or (or ?v_107 P37) ?v_46)) (or (or ?v_56 ?v_19) ?v_194)) (or (or ?v_103 ?v_122) ?v_24)) (or (or P35 ?v_151) ?v_16)) (or (or ?v_64 ?v_42) P2)) (or (or ?v_93 ?v_59) ?v_103)) (or (or ?v_116 P41) ?v_10)) (or (or ?v_42 ?v_166) ?v_241)) (or (or ?v_12 ?v_131) ?v_21)) (or (or P19 ?v_244) ?v_170)) (or (or ?v_257 ?v_80) ?v_238)) (or (or ?v_81 ?v_70) ?v_246)) (or (or ?v_80 P1) ?v_238)) (or (or ?v_205 ?v_228) ?v_168)) (or (or ?v_231 ?v_122) ?v_77)) (or (or ?v_66 P49) P36)) (or (or ?v_31 ?v_33) ?v_250)) (or (or P18 P47) ?v_0)) (or (or P3 ?v_219) ?v_121)) (or (or ?v_151 ?v_220) ?v_247)) (or (or P23 ?v_34) ?v_35)) (or (or ?v_106 ?v_230) ?v_91)) (or (or ?v_19 ?v_249) ?v_134)) (or (or ?v_38 ?v_152) P31)) (or (or P0 ?v_153) ?v_95)) (or (or ?v_190 ?v_222) ?v_70)) (or (or ?v_121 ?v_114) ?v_139)) (or (or P5 P43) ?v_137)) (or (or ?v_220 P15) ?v_56)) (or (or ?v_34 ?v_78) ?v_171)) (or (or ?v_182 ?v_197) ?v_139)) (or (or ?v_142 ?v_105) ?v_12)) (or (or ?v_61 ?v_144) ?v_222)) (or (or ?v_237 ?v_225) ?v_207)) (or (or ?v_64 ?v_48) ?v_33)) (or (or ?v_23 ?v_181) ?v_88)) (or (or ?v_251 ?v_106) ?v_143)) (or (or ?v_90 P22) ?v_36)) (or (or P12 ?v_158) ?v_174)) (or (or ?v_5 ?v_100) ?v_158)) (or (or ?v_252 ?v_132) ?v_195)) (or (or ?v_169 ?v_71) ?v_174)) (or (or ?v_103 ?v_37) ?v_220)) (or (or ?v_29 ?v_71) ?v_171)) (or (or ?v_46 P24) ?v_243)) (or (or ?v_253 ?v_123) ?v_122)) (or (or ?v_151 P10) ?v_64)) (or (or P33 ?v_254) ?v_248)) (or (or ?v_191 ?v_205) P37)) (or (or ?v_195 ?v_123) ?v_179)) (or (or ?v_76 ?v_122) P5)) (or (or ?v_224 ?v_252) ?v_91)) (or (or ?v_255 ?v_255) ?v_119)) (or (or ?v_150 P6) ?v_124)) (or (or ?v_95 ?v_27) ?v_34)) (or ?v_261 ?v_148)) (or (or ?v_44 P10) ?v_56)) (or (or ?v_48 ?v_156) P21)) (or (or ?v_223 ?v_157) ?v_147)) (or (or ?v_3 ?v_169) ?v_189)) (or (or P11 ?v_8) ?v_140)) (or (or ?v_156 ?v_3) ?v_100)) (or (or ?v_69 ?v_21) ?v_23)) (or (or ?v_51 P31) ?v_140)) (or (or ?v_203 ?v_45) P2)) (or (or P5 ?v_10) P45)) (or (or ?v_200 ?v_25) ?v_204)) (or (or ?v_214 ?v_231) ?v_17)) (or (or ?v_177 ?v_5) ?v_203)) (or (or ?v_236 ?v_39) ?v_154)) (or (or ?v_194 P1) ?v_94)) (or (or ?v_174 ?v_239) ?v_158)) (or (or ?v_169 P46) P48)) (or (or ?v_83 ?v_249) ?v_122)) (or (or P11 ?v_58) ?v_245)) (or (or ?v_107 ?v_77) ?v_133)) (or (or ?v_186 ?v_245) ?v_56)) (or (or ?v_50 ?v_144) ?v_72)) (or (or ?v_216 P48) ?v_178)) (or (or ?v_176 ?v_265) ?v_7)) (or (or ?v_42 ?v_157) ?v_256)) (or ?v_259 ?v_112)) (or (or P6 ?v_186) ?v_77)) (or (or ?v_40 P17) ?v_204)) (or (or ?v_219 ?v_214) P38)) (or (or ?v_206 ?v_199) ?v_226)) (or (or ?v_245 ?v_75) ?v_155)) (or (or ?v_112 ?v_147) ?v_66)) (or (or ?v_123 ?v_255) ?v_244)) (or (or P24 ?v_12) P48)) (or (or P5 P29) ?v_171)) (or (or P17 ?v_93) ?v_10)) (or (or ?v_130 ?v_7) ?v_10)) (or (or ?v_251 ?v_239) ?v_19)) (or (or P28 ?v_97) ?v_65)) (or (or ?v_191 ?v_88) ?v_120)) (or (or P41 ?v_24) ?v_254)) (or (or ?v_93 P42) ?v_161)) (or (or P11 ?v_31) P12)) (or (or ?v_185 ?v_244) P20)) (or (or P29 P25) ?v_16)) (or (or ?v_132 ?v_257) ?v_169)) (or (or P3 ?v_93) ?v_5)) (or (or ?v_232 ?v_19) ?v_3)) (or (or ?v_202 ?v_50) ?v_59)) (or (or P28 ?v_201) ?v_251)) (or (or ?v_241 ?v_244) ?v_258)) (or (or ?v_204 ?v_198) ?v_101)) (or (or ?v_226 ?v_111) ?v_10)) (or (or ?v_206 ?v_178) ?v_219)) (or (or ?v_184 ?v_127) ?v_94)) (or (or ?v_194 ?v_209) ?v_221)) (or (or P3 ?v_145) ?v_0)) (or (or P10 ?v_157) ?v_44)) (or (or ?v_105 ?v_154) P34)) (or (or ?v_230 P9) P34)) (or (or ?v_64 ?v_44) ?v_56)) (or (or ?v_35 P1) ?v_228)) (or (or ?v_116 ?v_69) P7)) (or (or ?v_212 ?v_67) P26)) (or (or ?v_147 P27) ?v_152)) (or (or ?v_20 ?v_147) ?v_190)) (or (or ?v_115 ?v_171) ?v_203)) (or (or ?v_220 ?v_153) ?v_67)) (or (or ?v_250 ?v_145) ?v_161)) (or (or ?v_177 P10) ?v_101)) (or (or ?v_100 ?v_105) ?v_131)) (or (or ?v_166 ?v_134) ?v_201)) (or (or ?v_38 ?v_87) ?v_246)) (or (or P5 P23) ?v_248)) (or ?v_259 ?v_254)) (or (or ?v_5 P17) ?v_260)) (or (or P43 ?v_185) ?v_16)) (or (or P44 ?v_94) ?v_145)) (or ?v_261 ?v_83)) (or (or ?v_107 P21) ?v_68)) (or (or ?v_109 ?v_201) ?v_48)) (or (or ?v_262 ?v_66) ?v_27)) (or (or P31 P24) ?v_82)) (or (or P20 P29) ?v_148)) (or (or ?v_10 P47) ?v_237)) (or ?v_263 P47)) (or (or ?v_201 ?v_17) ?v_228)) (or (or ?v_38 P15) ?v_204)) (or (or P17 ?v_50) P0)) (or (or ?v_86 ?v_16) P41)) (or (or ?v_66 ?v_137) ?v_149)) (or (or ?v_81 P27) P41)) (or (or ?v_116 ?v_65) ?v_40)) (or (or ?v_197 ?v_198) ?v_46)) (or (or ?v_194 ?v_92) ?v_28)) (or (or ?v_177 P4) ?v_95)) (or (or P34 ?v_141) ?v_85)) (or (or ?v_79 ?v_132) ?v_94)) (or (or ?v_148 ?v_77) ?v_152)) (or (or ?v_121 ?v_243) ?v_75)) (or (or P18 ?v_254) ?v_185)) (or (or ?v_47 ?v_251) ?v_49)) (or (or P46 ?v_10) P40)) (or (or ?v_198 ?v_153) ?v_115)) (or (or ?v_230 ?v_79) ?v_26)) (or (or ?v_162 ?v_1) ?v_227)) (or (or ?v_250 ?v_176) ?v_124)) (or (or ?v_153 ?v_237) ?v_239)) (or (or ?v_50 ?v_175) P4)) (or (or ?v_205 ?v_75) ?v_81)) (or (or P31 P9) ?v_33)) (or (or ?v_100 P13) ?v_252)) (or (or ?v_229 ?v_264) P35)) (or (or ?v_67 ?v_198) P3)) (or (or ?v_105 ?v_222) ?v_212)) (or (or P1 ?v_159) ?v_196)) (or (or ?v_109 ?v_192) ?v_236)) (or (or P36 P19) ?v_21)) (or (or ?v_50 ?v_200) ?v_49)) (or (or ?v_250 ?v_166) ?v_150)) (or (or ?v_80 ?v_197) ?v_248)) (or (or P0 ?v_150) ?v_107)) (or (or ?v_167 ?v_254) ?v_72)) (or (or ?v_265 ?v_188) ?v_238)) (or (or ?v_40 ?v_122) ?v_127)) (or (or ?v_130 ?v_156) ?v_90)) (or (or P5 ?v_3) ?v_100)) (or (or ?v_105 P47) ?v_130)) (or (or ?v_127 ?v_78) ?v_172)) (or (or ?v_163 P19) ?v_25)) (or (or ?v_3 P42) ?v_182)) (or (or ?v_144 ?v_245) ?v_82)) (or (or ?v_40 ?v_135) ?v_55)) (or (or ?v_231 P11) ?v_174)) (or (or ?v_119 P37) ?v_232)) (or (or ?v_37 ?v_196) ?v_243)) (or (or ?v_123 ?v_114) P43)) (or (or P16 P12) ?v_211)) (or (or ?v_34 P34) ?v_179)) (or (or ?v_47 ?v_179) ?v_157)) (or (or ?v_177 P11) ?v_179)) (or (or ?v_100 P40) ?v_192)) (or (or P46 P7) ?v_1)) (or (or ?v_55 ?v_239) ?v_251)) (or (or ?v_191 ?v_163) ?v_69)) (or (or ?v_35 ?v_66) P45)) (or (or P20 ?v_197) ?v_38)) (or (or ?v_119 ?v_157) ?v_236)) (or (or P25 ?v_102) ?v_171)) (or (or ?v_121 ?v_38) P10)) (or (or ?v_29 ?v_75) ?v_137)) (or (or ?v_217 ?v_86) ?v_215)) (or (or ?v_111 ?v_58) ?v_78)) (or (or ?v_229 ?v_230) ?v_227)) (or (or ?v_19 P5) ?v_222)) (or (or ?v_139 P46) P40)) (or (or ?v_80 ?v_31) P40)) (or (or ?v_264 P27) ?v_59)) (or (or ?v_204 ?v_134) ?v_126)) (or (or ?v_100 ?v_71) ?v_14)) (or (or ?v_217 ?v_90) ?v_18)) (or (or ?v_220 ?v_64) ?v_180)) (or (or ?v_156 P2) ?v_101)) (or (or ?v_227 ?v_23) P49)) (or (or ?v_90 ?v_2) ?v_17)) (or (or ?v_130 ?v_184) ?v_199)) (or (or ?v_139 ?v_231) ?v_64)) (or (or ?v_185 ?v_68) ?v_241)) (or (or ?v_76 ?v_148) ?v_106)) (or (or ?v_130 P16) ?v_153)) (or (or ?v_218 P46) ?v_115)) (or (or ?v_30 ?v_26) ?v_252)) (or (or ?v_217 ?v_0) ?v_33)) (or (or ?v_111 ?v_83) ?v_266))))))))))))))))))))))))))))))))
(check-sat)
(exit)
